BEGIN IONS
PEPMASS=299.1754
RT=13.951 min
CHARGE=1+
MSLEVEL=2
IONMODE=Positive
SOURCE_INSTRUMENT=LC-ESI-QTOF
COLLISION_ENERGY=10
FORMULA=C18H22N2O2
299.1763    454.8
END IONS

BEGIN IONS
PEPMASS=299.1754
RT=13.951 min
CHARGE=1+
MSLEVEL=2
IONMODE=Positive
SOURCE_INSTRUMENT=LC-ESI-QTOF
COLLISION_ENERGY=120
FORMULA=C18H22N2O2
39.0232    0.7
50.0151    1.2
51.0231    2.1
54.034    0.4
65.0385    0.7
77.0382    1.4
89.0383    0.5
115.0535    0.7
END IONS

BEGIN IONS
PEPMASS=299.1754
RT=13.951 min
CHARGE=1+
MSLEVEL=2
IONMODE=Positive
SOURCE_INSTRUMENT=LC-ESI-QTOF
COLLISION_ENERGY=40
FORMULA=C18H22N2O2
41.0386    0.5
43.0545    1.3
55.018    0.5
57.0698    0.5
77.0383    1.1
84.0435    1.3
93.0569    0.7
94.0647    1
104.049    2
115.0536    0.8
118.0645    1.2
120.0807    0.7
128.0487    0.8
142.065    1.2
143.0732    1
144.0802    0.8
146.0592    1.8
154.0638    1.2
158.082    0.7
159.0918    1.1
170.0592    3.1
172.0755    2.3
182.0581    0.5
187.0861    31.3
198.0535    0.6
199.0609    0.6
199.0857    0.8
200.0707    4.1
201.0771    1
213.102    0.5
214.0727    1.1
214.0856    0.5
215.0813    6.6
216.088    2.3
226.0731    0.6
227.0808    1.3
241.0974    44
243.1141    1.5
256.1198    4.2
257.1291    0.5
299.1746    5
END IONS

BEGIN IONS
PEPMASS=299.1754
RT=13.951 min
CHARGE=1+
MSLEVEL=2
IONMODE=Positive
SOURCE_INSTRUMENT=LC-ESI-QTOF
COLLISION_ENERGY=90
FORMULA=C18H22N2O2
39.0232    0.6
41.0391    1
50.0158    0.7
51.0229    1.8
54.0333    0.5
65.0386    0.8
68.0128    1
77.0383    6.5
82.0525    1.1
89.0375    1
90.0459    0.6
91.0537    1.9
93.0575    0.8
101.0399    0.4
103.0536    0.5
104.0494    0.7
105.0441    0.4
115.0534    2.5
116.048    0.5
117.0564    0.8
127.0535    1.2
128.0493    1
130.0645    0.4
140.0475    0.6
143.073    0.5
END IONS

BEGIN IONS
PEPMASS=299.1754
RT=13.951 min
CHARGE=1+
MSLEVEL=2
IONMODE=Positive
SOURCE_INSTRUMENT=LC-ESI-QTOF
COLLISION_ENERGY=80
FORMULA=C18H22N2O2
39.0229    0.5
41.0384    0.8
43.0547    0.4
51.0232    1.3
54.0335    0.4
55.0173    0.4
65.0378    0.4
68.0127    1
77.0385    5.8
82.0519    0.9
89.0378    0.7
91.054    2.1
93.0566    1.2
101.0385    0.4
103.0535    0.5
104.0497    0.8
105.0448    0.5
111.0543    0.4
115.0536    2.9
116.0489    0.8
117.0567    1.2
118.0635    0.8
127.0535    0.8
128.0488    1.5
130.0649    0.7
140.0506    0.8
142.063    0.7
143.0719    1.4
144.0801    0.5
154.0651    0.4
172.0768    0.5
199.0867    0.4
END IONS

BEGIN IONS
PEPMASS=299.1754
RT=13.951 min
CHARGE=1+
MSLEVEL=2
IONMODE=Positive
SOURCE_INSTRUMENT=LC-ESI-QTOF
COLLISION_ENERGY=150
FORMULA=C18H22N2O2
39.0231    0.9
49.0072    0.5
50.0148    1.6
51.0232    1.7
63.0231    0.5
65.0392    0.4
77.0377    0.6
89.0378    0.7
END IONS

BEGIN IONS
PEPMASS=299.1754
RT=13.951 min
CHARGE=1+
MSLEVEL=2
IONMODE=Positive
SOURCE_INSTRUMENT=LC-ESI-QTOF
COLLISION_ENERGY=20
FORMULA=C18H22N2O2
215.0815    46.5
241.0955    2.9
243.1136    4.3
256.12    4.1
299.176    285.3
END IONS

BEGIN IONS
PEPMASS=299.1754
RT=13.951 min
CHARGE=1+
MSLEVEL=2
IONMODE=Positive
SOURCE_INSTRUMENT=LC-ESI-QTOF
COLLISION_ENERGY=70
FORMULA=C18H22N2O2
39.0228    0.5
41.0388    0.6
43.0544    0.6
51.0226    0.8
68.0125    1
77.0387    4.9
82.0527    0.7
84.0443    0.4
91.0537    1.3
93.0562    1.4
94.0657    0.4
104.0492    1.4
110.0465    0.6
111.0551    0.6
115.0535    3.5
116.0487    0.8
117.0566    1.5
117.0683    0.6
118.0638    1.4
120.0808    0.5
127.0536    0.9
128.0484    1.7
130.0639    0.7
140.0483    0.5
142.0644    0.9
143.0721    1
144.0801    1.1
146.0593    1
148.0373    0.4
154.0636    1.1
155.0574    0.8
158.0836    0.5
170.0611    0.5
172.0752    0.8
187.0871    0.6
199.0816    0.5
226.0727    0.7
END IONS

BEGIN IONS
PEPMASS=299.1754
RT=13.951 min
CHARGE=1+
MSLEVEL=2
IONMODE=Positive
SOURCE_INSTRUMENT=LC-ESI-QTOF
COLLISION_ENERGY=40
FORMULA=C18H22N2O2
43.0543    1.5
57.0702    0.6
77.0383    0.6
84.0435    1.3
93.0569    0.7
94.0648    1.1
104.0494    1.5
115.0535    0.8
118.0652    1.2
120.0807    0.6
142.064    1.5
144.0797    1.6
145.0763    0.6
146.0596    2.3
154.0654    0.7
159.0905    1
170.0597    3.8
172.0745    1.9
182.0596    0.7
187.0864    40.5
200.0704    3.7
201.0776    1.4
214.0855    1
215.0811    5.5
216.088    2.6
227.0799    1.2
241.0969    51.8
256.1194    2.9
257.1277    0.6
299.1748    1.4
END IONS

BEGIN IONS
PEPMASS=299.1754
RT=13.951 min
CHARGE=1+
MSLEVEL=2
IONMODE=Positive
SOURCE_INSTRUMENT=LC-ESI-QTOF
COLLISION_ENERGY=100
FORMULA=C18H22N2O2
39.0233    0.9
41.0386    0.6
50.0156    0.6
51.0231    2.2
65.0385    0.9
68.0133    0.5
75.0224    0.5
77.0384    3.9
82.0531    0.7
89.0388    1.2
91.0531    1.2
93.0572    0.7
101.0366    0.6
103.0582    0.4
115.0545    1.6
116.0496    0.4
117.0574    0.7
128.0486    0.9
130.0636    0.6
143.0715    0.4
END IONS

BEGIN IONS
PEPMASS=299.1754
RT=13.951 min
CHARGE=1+
MSLEVEL=2
IONMODE=Positive
SOURCE_INSTRUMENT=LC-ESI-QTOF
COLLISION_ENERGY=140
FORMULA=C18H22N2O2
39.0231    0.7
50.0151    1.1
51.023    2
54.0342    0.4
77.0385    0.9
END IONS

BEGIN IONS
PEPMASS=299.1754
RT=13.951 min
CHARGE=1+
MSLEVEL=2
IONMODE=Positive
SOURCE_INSTRUMENT=LC-ESI-QTOF
COLLISION_ENERGY=30
FORMULA=C18H22N2O2
43.0545    0.8
57.0698    0.7
94.0647    1.2
170.059    2.7
172.0741    1.4
187.0864    31.7
198.0536    1.6
200.0698    4.8
201.0769    2.1
214.0759    0.6
215.0815    40.1
216.0886    3.4
241.0968    33.2
243.1123    4.7
256.1204    20.4
257.1267    2.9
299.1754    55.4
END IONS

BEGIN IONS
PEPMASS=299.1754
RT=13.951 min
CHARGE=1+
MSLEVEL=2
IONMODE=Positive
SOURCE_INSTRUMENT=LC-ESI-QTOF
COLLISION_ENERGY=110
FORMULA=C18H22N2O2
39.0233    0.7
41.0383    0.6
49.0068    0.5
50.0152    1
51.023    2.1
54.0336    0.5
65.0384    0.8
75.0225    0.5
77.0383    2.9
89.0385    1
90.0451    0.4
91.0537    0.7
115.0542    1.3
END IONS

BEGIN IONS
PEPMASS=299.1754
RT=13.951 min
CHARGE=1+
MSLEVEL=2
IONMODE=Positive
SOURCE_INSTRUMENT=LC-ESI-QTOF
COLLISION_ENERGY=130
FORMULA=C18H22N2O2
39.0233    1
50.015    1.1
51.0229    2
63.0223    0.6
65.0387    0.6
75.0234    0.4
77.0385    1.4
89.0383    0.8
END IONS

BEGIN IONS
PEPMASS=299.1754
RT=13.951 min
CHARGE=1+
MSLEVEL=2
IONMODE=Positive
SOURCE_INSTRUMENT=LC-ESI-QTOF
COLLISION_ENERGY=50
FORMULA=C18H22N2O2
41.0384    0.8
43.0546    1.4
55.018    0.7
57.07    0.6
77.0384    1.7
84.0436    1.5
93.0573    1.5
94.0646    1.1
104.0488    2.8
110.0472    0.5
111.055    0.4
115.0535    1.8
116.0474    0.5
117.057    0.6
117.0693    0.6
118.0643    2
120.0802    0.9
128.0494    0.7
130.0647    0.7
139.0502    0.5
140.0487    0.4
142.065    2.5
143.0723    0.8
144.0432    0.6
144.0806    2.2
145.0749    0.6
146.0596    3
148.038    1.3
154.0644    1.2
155.0664    0.7
158.0824    0.7
159.0913    1.1
170.0591    3.6
172.0749    2.5
182.0589    0.9
186.09    0.5
187.0859    17.2
198.0532    0.7
199.0622    0.5
200.0699    3.4
201.0775    0.6
213.0641    0.5
213.1006    0.5
214.0772    1.9
215.081    0.8
216.0875    1.8
226.0722    2
227.0794    1.5
241.0969    27.5
256.119    0.4
END IONS

BEGIN IONS
PEPMASS=299.1754
RT=13.951 min
CHARGE=1+
MSLEVEL=2
IONMODE=Positive
SOURCE_INSTRUMENT=LC-ESI-QTOF
COLLISION_ENERGY=60
FORMULA=C18H22N2O2
41.0387    0.9
43.0538    0.9
51.0229    0.4
55.0167    0.6
68.0134    0.4
77.0381    3.1
82.0518    0.6
84.0443    0.9
91.0543    1.1
93.0569    1.4
94.0649    0.7
104.0487    2.6
110.0471    0.5
115.0539    4
116.049    0.6
117.0574    1.2
118.0644    2.3
120.0802    0.6
127.0532    0.9
128.0487    1.3
130.0645    0.7
139.0497    0.4
142.0642    1.1
143.0716    0.9
144.0453    0.6
144.0799    1.9
146.0598    1.3
148.0386    0.5
154.0638    1.3
158.0843    1.1
159.0919    0.9
170.0598    1.5
172.0745    2.2
182.06    0.5
186.0903    1
187.0861    2.7
199.0623    0.4
200.0692    2.3
226.0743    1.2
227.0792    0.7
241.0956    3.3
END IONS